src/crossbar_controller/crossbar_controller_task1/model/design_smt2.smt2
; SMT-LIBv2 description generated by Yosys 0.33+67 (git sha1 076c5ceb7, clang 10.0.0-4ubuntu1 -fPIC -Os)
; yosys-smt2-module crossbar_controller
(declare-sort |crossbar_controller_s| 0)
(declare-fun |crossbar_controller_is| (|crossbar_controller_s|) Bool)
(declare-fun |crossbar_controller#0| (|crossbar_controller_s|) Bool) ; \w
; yosys-smt2-input w 1
; yosys-smt2-wire w 1
; yosys-smt2-witness {"offset": 0, "path": ["\\w"], "smtname": "w", "smtoffset": 0, "type": "input", "width": 1}
(define-fun |crossbar_controller_n w| ((state |crossbar_controller_s|)) Bool (|crossbar_controller#0| state))
(declare-fun |crossbar_controller#1| (|crossbar_controller_s|) Bool) ; \s
; yosys-smt2-input s 1
; yosys-smt2-wire s 1
; yosys-smt2-witness {"offset": 0, "path": ["\\s"], "smtname": "s", "smtoffset": 0, "type": "input", "width": 1}
(define-fun |crossbar_controller_n s| ((state |crossbar_controller_s|)) Bool (|crossbar_controller#1| state))
(declare-fun |crossbar_controller#2| (|crossbar_controller_s|) (_ BitVec 6)) ; \in
; yosys-smt2-input in 6
; yosys-smt2-wire in 6
; yosys-smt2-witness {"offset": 0, "path": ["\\in"], "smtname": "in", "smtoffset": 0, "type": "input", "width": 6}
(define-fun |crossbar_controller_n in| ((state |crossbar_controller_s|)) (_ BitVec 6) (|crossbar_controller#2| state))
(define-fun |crossbar_controller#3| ((state |crossbar_controller_s|)) (_ BitVec 6) (ite (|crossbar_controller#1| state) #b010010 (|crossbar_controller#2| state))) ; $2\defaultout[5:0]
(define-fun |crossbar_controller#4| ((state |crossbar_controller_s|)) (_ BitVec 6) (ite (|crossbar_controller#0| state) #b001001 (|crossbar_controller#3| state))) ; \defaultout
; yosys-smt2-output defaultout 6
; yosys-smt2-wire defaultout 6
(define-fun |crossbar_controller_n defaultout| ((state |crossbar_controller_s|)) (_ BitVec 6) (|crossbar_controller#4| state))
(define-fun |crossbar_controller_a| ((state |crossbar_controller_s|)) Bool true)
(define-fun |crossbar_controller_u| ((state |crossbar_controller_s|)) Bool true)
(define-fun |crossbar_controller_i| ((state |crossbar_controller_s|)) Bool true)
(define-fun |crossbar_controller_h| ((state |crossbar_controller_s|)) Bool true)
(define-fun |crossbar_controller_t| ((state |crossbar_controller_s|) (next_state |crossbar_controller_s|)) Bool true) ; end of module crossbar_controller
; yosys-smt2-topmod crossbar_controller
; end of yosys output
